k = 70;
b = 35;
AtomicConstraints =  [|
1, 6|
	1, 61|
	1, 63|
	1, 66|
	2, 6|
	2, 7|
	2, 59|
	2, 61|
	2, 63|
	2, 66|
	3, 6|
	3, 7|
	3, 60|
	3, 59|
	3, 61|
	3, 63|
	3, 66|
	4, 6|
	4, 7|
	4, 60|
	4, 59|
	4, 61|
	4, 63|
	4, 66|
	5, 6|
	5, 7|
	5, 60|
	5, 59|
	5, 61|
	5, 63|
	5, 66|
	8, 1|
	8, 2|
	8, 3|
	8, 4|
	8, 5|
	8, 6|
	8, 7|
	8, 60|
	8, 59|
	8, 62|
	8, 56|
	8, 57|
	8, 58|
	8, 64|
	8, 65|
	8, 67|
	8, 68|
	8, 69|
	8, 47|
	8, 48|
	8, 70|
	8, 61|
	8, 63|
	8, 66|
	9, 1|
	9, 2|
	9, 3|
	9, 4|
	9, 5|
	9, 6|
	9, 7|
	9, 60|
	9, 59|
	9, 62|
	9, 56|
	9, 57|
	9, 58|
	9, 64|
	9, 65|
	9, 67|
	9, 68|
	9, 69|
	9, 47|
	9, 48|
	9, 70|
	9, 61|
	9, 63|
	9, 66|
	10, 1|
	10, 2|
	10, 3|
	10, 4|
	10, 5|
	10, 6|
	10, 7|
	10, 60|
	10, 59|
	10, 62|
	10, 56|
	10, 57|
	10, 58|
	10, 64|
	10, 65|
	10, 67|
	10, 68|
	10, 69|
	10, 47|
	10, 48|
	10, 70|
	10, 61|
	10, 63|
	10, 66|
	12, 11|
	13, 11|
	13, 12|
	14, 11|
	14, 12|
	14, 13|
	15, 11|
	15, 12|
	15, 13|
	15, 14|
	16, 62|
	16, 56|
	16, 57|
	16, 58|
	16, 64|
	16, 65|
	16, 67|
	16, 68|
	16, 69|
	16, 47|
	16, 48|
	16, 70|
	16, 61|
	16, 63|
	16, 66|
	17, 62|
	17, 56|
	17, 57|
	17, 58|
	17, 64|
	17, 65|
	17, 67|
	17, 68|
	17, 69|
	17, 47|
	17, 48|
	17, 70|
	17, 61|
	17, 63|
	17, 66|
	18, 62|
	18, 56|
	18, 64|
	18, 65|
	18, 67|
	18, 47|
	18, 48|
	18, 70|
	18, 61|
	18, 63|
	19, 62|
	19, 64|
	19, 65|
	19, 47|
	19, 48|
	19, 70|
	19, 61|
	20, 62|
	20, 47|
	21, 46|
	21, 26|
	21, 28|
	21, 41|
	22, 46|
	22, 26|
	22, 28|
	22, 31|
	22, 41|
	22, 42|
	23, 46|
	23, 26|
	23, 28|
	23, 31|
	23, 41|
	23, 42|
	49, 46|
	49, 21|
	49, 26|
	49, 35|
	50, 46|
	50, 21|
	50, 49|
	50, 26|
	50, 35|
	24, 46|
	24, 21|
	24, 22|
	24, 49|
	24, 26|
	24, 28|
	24, 41|
	24, 35|
	25, 46|
	25, 21|
	25, 22|
	25, 23|
	25, 49|
	25, 26|
	25, 28|
	25, 31|
	25, 41|
	25, 42|
	25, 35|
	29, 26|
	29, 28|
	29, 31|
	29, 42|
	30, 27|
	30, 28|
	30, 31|
	32, 46|
	32, 26|
	32, 28|
	32, 29|
	32, 31|
	32, 41|
	32, 42|
	33, 46|
	33, 26|
	33, 27|
	33, 28|
	33, 29|
	33, 30|
	33, 31|
	33, 41|
	33, 42|
	34, 26|
	34, 27|
	34, 28|
	34, 30|
	34, 31|
	34, 42|
	36, 46|
	36, 21|
	36, 22|
	36, 23|
	36, 26|
	36, 28|
	36, 29|
	36, 31|
	36, 32|
	36, 33|
	36, 41|
	36, 42|
	36, 35|
	37, 46|
	37, 21|
	37, 22|
	37, 23|
	37, 26|
	37, 28|
	37, 29|
	37, 30|
	37, 31|
	37, 32|
	37, 33|
	37, 41|
	37, 42|
	37, 35|
	38, 46|
	38, 21|
	38, 22|
	38, 23|
	38, 26|
	38, 27|
	38, 28|
	38, 29|
	38, 30|
	38, 31|
	38, 32|
	38, 33|
	38, 34|
	38, 41|
	38, 42|
	38, 35|
	39, 46|
	39, 21|
	39, 22|
	39, 23|
	39, 26|
	39, 27|
	39, 28|
	39, 29|
	39, 30|
	39, 31|
	39, 32|
	39, 33|
	39, 34|
	39, 41|
	39, 42|
	39, 35|
	40, 46|
	40, 21|
	40, 22|
	40, 23|
	40, 26|
	40, 27|
	40, 28|
	40, 29|
	40, 30|
	40, 31|
	40, 32|
	40, 33|
	40, 34|
	40, 41|
	40, 42|
	55, 46|
	55, 21|
	55, 22|
	55, 23|
	55, 49|
	55, 26|
	55, 28|
	55, 29|
	55, 31|
	55, 32|
	55, 33|
	55, 36|
	55, 37|
	55, 38|
	55, 41|
	55, 42|
	55, 35|
	54, 46|
	54, 21|
	54, 22|
	54, 23|
	54, 26|
	54, 28|
	54, 29|
	54, 30|
	54, 31|
	54, 32|
	54, 33|
	54, 36|
	54, 37|
	54, 38|
	54, 39|
	54, 41|
	54, 42|
	54, 35|
	53, 46|
	53, 21|
	53, 22|
	53, 23|
	53, 26|
	53, 27|
	53, 28|
	53, 29|
	53, 30|
	53, 31|
	53, 32|
	53, 33|
	53, 34|
	53, 36|
	53, 37|
	53, 38|
	53, 39|
	53, 40|
	53, 41|
	53, 42|
	53, 35|
	52, 46|
	52, 21|
	52, 22|
	52, 23|
	52, 26|
	52, 27|
	52, 28|
	52, 29|
	52, 30|
	52, 31|
	52, 32|
	52, 33|
	52, 34|
	52, 36|
	52, 37|
	52, 38|
	52, 39|
	52, 40|
	52, 41|
	52, 42|
	52, 35|
	51, 46|
	51, 21|
	51, 22|
	51, 23|
	51, 26|
	51, 27|
	51, 28|
	51, 29|
	51, 30|
	51, 31|
	51, 32|
	51, 33|
	51, 34|
	51, 36|
	51, 37|
	51, 38|
	51, 39|
	51, 40|
	51, 41|
	51, 42|
	51, 35|
	45, 46|
	45, 21|
	45, 22|
	45, 23|
	45, 49|
	45, 25|
	45, 26|
	45, 28|
	45, 29|
	45, 31|
	45, 32|
	45, 33|
	45, 36|
	45, 37|
	45, 38|
	45, 55|
	45, 54|
	45, 53|
	45, 41|
	45, 42|
	45, 35|
	44, 46|
	44, 21|
	44, 22|
	44, 23|
	44, 49|
	44, 26|
	44, 27|
	44, 28|
	44, 29|
	44, 30|
	44, 31|
	44, 32|
	44, 33|
	44, 34|
	44, 36|
	44, 37|
	44, 38|
	44, 39|
	44, 40|
	44, 55|
	44, 54|
	44, 53|
	44, 52|
	44, 51|
	44, 41|
	44, 42|
	44, 35|
	43, 46|
	43, 21|
	43, 22|
	43, 23|
	43, 26|
	43, 27|
	43, 28|
	43, 29|
	43, 30|
	43, 31|
	43, 32|
	43, 33|
	43, 34|
	43, 36|
	43, 37|
	43, 38|
	43, 39|
	43, 40|
	43, 53|
	43, 52|
	43, 51|
	43, 41|
	43, 42|
	43, 35|
	41, 46|
	41, 26|
	41, 28|
	41, 31|
	42, 26|
	42, 28|
	42, 31|
	35, 46|
	35, 26|
	60, 6|
	60, 7|
	59, 6|
	59, 7|
	56, 61|
	56, 63|
	56, 66|
	57, 61|
	57, 63|
	57, 66|
	58, 61|
	58, 63|
	58, 66|
	62, 47|
	62, 48|
	62, 61|
	64, 47|
	64, 48|
	64, 70|
	64, 61|
	64, 63|
	65, 56|
	65, 47|
	65, 48|
	65, 70|
	65, 61|
	65, 63|
	67, 56|
	67, 57|
	67, 48|
	67, 70|
	67, 61|
	67, 63|
	67, 66|
	68, 56|
	68, 57|
	68, 58|
	68, 70|
	68, 61|
	68, 63|
	68, 66|
	69, 56|
	69, 57|
	69, 58|
	69, 61|
	69, 63|
	69, 66|
	47, 61|
	48, 61|
	48, 63|
	70, 61|
	70, 63|];
DisjunctiveConstraints =  [|1, 59, 24, 1|
	2, 3, 2, 1|
	2, 60, 25, 2|
	3, 4, 3, 2|
	4, 5, 4, 3|
	9, 8, 9, 10|
	10, 5, 40, 10|
	16, 23, 16, 58|
	16, 34, 16, 69|
	17, 16, 17, 18|
	17, 22, 17, 57|
	17, 33, 17, 68|
	17, 31, 17, 66|
	18, 17, 18, 19|
	18, 30, 18, 65|
	18, 28, 18, 63|
	18, 35, 18, 70|
	18, 57, 22, 18|
	18, 68, 33, 18|
	19, 13, 19, 48|
	19, 18, 19, 20|
	19, 26, 19, 61|
	19, 29, 19, 64|
	19, 65, 30, 19|
	19, 70, 35, 19|
	19, 63, 28, 19|
	20, 64, 29, 20|
	20, 48, 13, 20|
	20, 61, 26, 20|
	21, 22, 21, 35|
	22, 23, 22, 21|
	24, 25, 24, 50|
	24, 41, 6, 24|
	25, 41, 25, 6|
	25, 42, 7, 25|
	26, 28, 26, 46|
	28, 31, 28, 26|
	33, 34, 33, 32|
	36, 29, 64, 36|
	37, 38, 37, 36|
	38, 30, 65, 38|
	38, 39, 38, 37|
	39, 27, 62, 39|
	39, 40, 39, 38|
	40, 27, 40, 62|
	55, 29, 64, 55|
	54, 33, 68, 54|
	54, 53, 54, 55|
	53, 30, 65, 53|
	53, 52, 53, 54|
	52, 27, 62, 52|
	52, 34, 69, 52|
	52, 51, 52, 53|
	51, 27, 51, 62|
	45, 29, 64, 45|
	44, 30, 65, 44|
	44, 43, 44, 45|
	43, 27, 43, 62|
	59, 42, 59, 7|
	56, 57, 56, 70|
	56, 66, 31, 56|
	57, 31, 57, 66|
	57, 58, 57, 56|
	62, 61, 26, 62|
	64, 26, 64, 61|
	64, 65, 64, 62|
	64, 63, 28, 64|
	65, 28, 65, 63|
	65, 67, 65, 64|
	67, 68, 67, 65|
	67, 66, 31, 67|
	68, 31, 68, 66|
	68, 69, 68, 67|
	47, 61, 26, 47|
	48, 26, 48, 61|
	48, 70, 48, 47|
	48, 63, 28, 48|
	70, 28, 70, 63|
	70, 56, 70, 48|
	63, 66, 63, 61|];
SoftAtomicConstraints =  [|
2, 1|
3, 2|
4, 3|
5, 4|
7, 6|
8, 9|
9, 10|
16, 17|
17, 18|
18, 19|
19, 20|
22, 21|
23, 22|
25, 24|
28, 26|
31, 28|
30, 29|
33, 32|
34, 33|
21, 35|
37, 36|
38, 37|
39, 38|
40, 39|
42, 41|
43, 44|
44, 45|
26, 46|
48, 47|
70, 48|
24, 50|
51, 52|
52, 53|
53, 54|
54, 55|
57, 56|
58, 57|
60, 59|
63, 61|
64, 62|
66, 63|
65, 64|
67, 65|
68, 67|
69, 68|
56, 70|];
DirectSuccessors =  [6,
7];
